22527
1 0 0 1 1 1 1 1 1 1 1 1 1 0 0 1 1 1 1 1 1 1 0 1 1 1 0 1 1 1 
18 19 21 27 21 12 15 27 18 28 4 28 10 3 28 18 3 20 27 0 18 16 5 24 10 18 27 19 29 21 19 19 4 16 27 6 20 8 24 16 18 9 6 4 8 19 3 21 19 20 24 16 24 16 8 6 11 9 18 25 29 0 7 8 3 11 5 17 28 25 18 12 19 9 23 23 20 23 8 16 10 0 9 25 29 10 6 5 27 7 28 6 25 25 0 3 11 6 0 28 28 15 25 18 4 0 4 24 27 3 19 4 27 12 12 8 28 7 17 8 9 11 17 19 9 16 21 11 19 17 28 24 25 20 23 9 3 3 28 10 12 27 11 11 25 5 24 15 27 25 24 17 23 0 8 11 5 15 3 3 3 27 10 24 5 27 5 4 3 21 5 20 19 10 4 21 0 10 29 10 5 21 21 19 12 8 28 23 0 21 21 21 6 4 7 12 7 15 10 19 